NAME: PointSet_Angle_15_2
TYPE: TSP
COMMENT: Points chosen discrete uniformly at random out of ${0, \ldots, 500}^2$.
DIMENSION: 15
EDGE_WEIGHT_TYPE: EUC_2D
NODE_COORD_SECTION
1 438 245
2 54 10
3 175 390
4 254 296
5 410 62
6 443 57
7 249 476
8 471 438
9 200 138
10 361 33
11 10 203
12 364 381
13 47 470
14 104 94
15 135 213
EOF
